nN = 5;
nR = 15;
nH = 1;

a = [[11, 21, 13, 25, 15, 11, 5, 6, 20, 23, 19, 8, 8, 9, 12], [24, 23, 16, 24, 6, 16, 11, 9, 7, 21, 14, 10, 12, 23, 12], [20, 22, 25, 10, 19, 15, 23, 15, 12, 13, 17, 18, 7, 5, 18], [17, 19, 13, 17, 13, 12, 10, 11, 7, 8, 22, 14, 12, 20, 12], [25, 23, 20, 9, 6, 19, 12, 25, 23, 12, 12, 5, 25, 5, 5]];
c = [[[0, 0, 0, 0, 0, 0, 0, 0, 0, 0, 0, 0, 0, 0, 0], [35, 36, 35, 41, 45, 35, 39, 37, 41, 39, 31, 32, 34, 33, 45], [42, 32, 42, 46, 37, 48, 38, 47, 37, 49, 44, 39, 32, 41, 31], [44, 38, 44, 37, 41, 37, 50, 42, 37, 46, 36, 40, 44, 42, 38], [45, 37, 35, 49, 30, 48, 44, 41, 40, 34, 46, 46, 49, 47, 43]], [[0, 0, 0, 0, 0, 0, 0, 0, 0, 0, 0, 0, 0, 0, 0], [0, 0, 0, 0, 0, 0, 0, 0, 0, 0, 0, 0, 0, 0, 0], [37, 49, 39, 33, 46, 32, 45, 49, 48, 30, 46, 39, 34, 35, 40], [48, 35, 36, 37, 42, 30, 39, 47, 41, 46, 36, 33, 47, 46, 43], [42, 39, 32, 43, 44, 42, 43, 40, 30, 34, 33, 47, 45, 50, 30]], [[0, 0, 0, 0, 0, 0, 0, 0, 0, 0, 0, 0, 0, 0, 0], [0, 0, 0, 0, 0, 0, 0, 0, 0, 0, 0, 0, 0, 0, 0], [0, 0, 0, 0, 0, 0, 0, 0, 0, 0, 0, 0, 0, 0, 0], [48, 46, 42, 30, 41, 34, 45, 45, 43, 44, 48, 44, 38, 47, 37], [33, 43, 36, 45, 30, 36, 41, 38, 46, 44, 39, 34, 43, 47, 41]], [[0, 0, 0, 0, 0, 0, 0, 0, 0, 0, 0, 0, 0, 0, 0], [0, 0, 0, 0, 0, 0, 0, 0, 0, 0, 0, 0, 0, 0, 0], [0, 0, 0, 0, 0, 0, 0, 0, 0, 0, 0, 0, 0, 0, 0], [0, 0, 0, 0, 0, 0, 0, 0, 0, 0, 0, 0, 0, 0, 0], [44, 32, 48, 40, 38, 30, 48, 41, 39, 31, 30, 35, 44, 40, 30]], [[0, 0, 0, 0, 0, 0, 0, 0, 0, 0, 0, 0, 0, 0, 0], [0, 0, 0, 0, 0, 0, 0, 0, 0, 0, 0, 0, 0, 0, 0], [0, 0, 0, 0, 0, 0, 0, 0, 0, 0, 0, 0, 0, 0, 0], [0, 0, 0, 0, 0, 0, 0, 0, 0, 0, 0, 0, 0, 0, 0], [0, 0, 0, 0, 0, 0, 0, 0, 0, 0, 0, 0, 0, 0, 0]]];
Q = [[41], [33], [34], [39], [39]];

q = [[[9], [21], [25], [13], [12], [25], [22], [25], [9], [15], [15], [14], [15], [25], [6]], [[18], [13], [7], [14], [19], [22], [11], [6], [25], [23], [13], [13], [9], [5], [7]], [[14], [21], [15], [14], [6], [22], [5], [10], [9], [18], [18], [13], [15], [22], [6]], [[22], [18], [8], [22], [8], [17], [12], [14], [12], [25], [12], [18], [25], [8], [21]], [[13], [8], [19], [7], [22], [12], [11], [23], [9], [8], [13], [21], [25], [23], [24]]];
p = [0.59, 0.07, 0.09, 0.42, 0.98, 0.96, 0.91, 0.85, 0.04, 0.19, 0.55, 0.32, 0.77, 0.82, 0.79];
